N = 60;
F = 7;
MaxItemsPerDay = 30;
MaxDay = 50;
name = ["i1", "i2", "i3", "i4", "i5", "i6", "i7", "i8", "i9", "i10", "i11", "i12", "i13", "i14", "i15", "i16", "i17", "i18", "i19", "i20", "i21", "i22", "i23", "i24", "i25", "i26", "i27", "i28", "i29", "i30", "i31", "i32", "i33", "i34", "i35", "i36", "i37", "i38", "i39", "i40", "i41", "i42", "i43", "i44", "i45", "i46", "i47", "i48", "i49", "i50", "i51", "i52", "i53", "i54", "i55", "i56", "i57", "i58", "i59", "i60"];
kind = [1, 2, 7, 3, 4, 2, 3, 8, 5, 7, 10, 2, 1, 7, 2, 7, 8, 1, 10, 10, 2, 10, 2, 10, 7, 5, 2, 7, 2, 6, 5, 9, 1, 10, 4, 4, 8, 8, 7, 9, 6, 5, 7, 7, 6, 9, 10, 5, 4, 1, 10, 8, 8, 4, 7, 6, 8, 2, 2, 5];
facility = [
  { 1, 6 },
  { 2, 4 },
  { 1, 2, 3, 5, 7 },
  { 2, 3 },
  { 1, 4, 5 },
  { 1, 2, 4 },
  { 2, 3, 4, 5, 7 },
  { 7 },
  { 4, 5 },
  { 4, 7 },
  { 1, 3, 5, 6 },
  { 1, 2, 4, 5, 7 },
  { 1, 3, 4, 5, 6, 7 },
  { 5, 7 },
  { 1, 2, 3 },
  { 3, 4, 5, 7 },
  { 3, 4, 5 },
  { 1, 2, 6 },
  { 2 },
  { 2, 3, 7 },
  { 1, 2, 4, 5, 7 },
  { 1, 5, 7 },
  { 1, 2, 3, 5 },
  { 1, 4, 5, 6 },
  { 3, 4, 5, 7 },
  { 1, 3, 4, 5 },
  { 1, 2 },
  { 1, 2, 3, 7 },
  { 1, 2, 4, 5 },
  { 1, 2, 4, 6 },
  { 1, 4, 5, 6 },
  { 2, 3, 4, 6, 7 },
  { 1 },
  { 6 },
  { 1, 4, 7 },
  { 4, 6 },
  { 1, 3, 5 },
  { 1, 7 },
  { 2, 3, 5, 6, 7 },
  { 1, 3, 5 },
  { 3, 4, 6, 7 },
  { 5, 6 },
  { 2, 4, 5, 7 },
  { 3, 5, 6, 7 },
  { 1, 3, 4, 6 },
  { 5 },
  { 1, 2, 6, 7 },
  { 3, 5, 6, 7 },
  { 1, 4, 7 },
  { 1, 2, 3, 5, 7 },
  { 1, 6, 7 },
  { 1, 5 },
  { 1, 2, 3, 7 },
  { 3, 4, 5, 6, 7 },
  { 1, 4, 7 },
  { 1, 2, 6 },
  { 1, 4, 5 },
  { 1, 2, 5 },
  { 1, 2, 4, 5 },
  { 3, 5, 6 }
];
producedDay = [25, 25, 25, 25, 25, 16, 4, 25, 17, 25, 25, 11, 25, 19, 21, 6, 3, 25, 7, 18, 25, 22, 24, 25, 25, 25, 24, 13, 25, 25, 25, 25, 25, 20, 2, 25, 8, 25, 25, 14, 10, 3, 20, 18, 17, 25, 25, 13, 25, 15, 25, 25, 25, 25, 25, 25, 9, 2, 16, 23];
deadLineDay = [38, 41, 46, 50, 37, 33, 17, 50, 50, 28, 50, 23, 50, 30, 35, 49, 48, 50, 37, 42, 50, 38, 50, 31, 50, 50, 50, 20, 37, 49, 50, 41, 48, 49, 13, 50, 50, 48, 47, 46, 50, 35, 50, 32, 50, 36, 50, 39, 50, 23, 50, 50, 50, 50, 50, 29, 33, 3, 50, 50];
